69
1 188 495
2 579 586
3 64 631
4 355 347
5 54 306
6 359 288
7 515 427
8 104 408
9 212 303
10 629 679
11 170 86
12 431 284
13 449 402
14 92 526
15 97 31
16 7 26
17 607 513
18 345 344
19 522 345
20 563 643
21 497 635
22 440 277
23 590 608
24 522 104
25 439 238
26 180 416
27 592 420
28 11 403
29 308 283
30 234 329
31 499 191
32 362 560
33 236 78
34 90 683
35 617 512
36 411 95
37 643 508
38 147 216
39 174 178
40 114 134
41 308 639
42 459 163
43 443 580
44 345 14
45 227 19
46 443 591
47 208 622
48 583 384
49 21 272
50 20 77
51 436 55
52 381 134
53 243 11
54 603 418
55 552 686
56 186 104
57 225 621
58 394 310
59 6 567
60 252 191
61 520 535
62 676 277
63 73 672
64 325 593
65 641 89
66 235 572
67 685 26
68 562 192
69 379 318
